jpf-symbc-bounded/src/examples/symbolicheap/bounded/bounddb/BinHeap-02.cnf
p cnf 247 292               
2 -106 0
12 -90 0
35 -90 0
-12 -35 90 0
90 -106 0
-2 -90 106 0
-12 -108 0
-2 -108 0
12 2 108 0
108 -2 116 0
12 -116 121 0
-106 -121 122 0
2 -12 123 0
-122 -123 124 0
1 -111 0
2 -111 0
111 -2 114 0
-108 -114 117 0
-106 -117 118 0
-11 -35 89 0
-2 -1 -40 0
6 -45 0
-5 -4 -42 0
42 -44 0
4 5 -43 0
43 -44 0
44 -45 0
-8 -7 -46 0
46 -48 0
7 8 -47 0
47 -48 0
48 -52 0
-10 -9 -49 0
49 -51 0
9 10 -50 0
50 -51 0
51 -52 0
-12 -11 -53 0
53 -55 0
11 12 -54 0
54 -55 0
-14 -13 -56 0
56 -60 0
-13 57 0
-14 57 0
13 14 -57 0
-57 -15 -58 0
58 -60 0
15 57 -59 0
59 -60 0
60 -66 0
-17 -16 -61 0
61 -65 0
-16 62 0
-17 62 0
16 17 -62 0
-62 -18 -63 0
63 -65 0
18 62 -64 0
64 -65 0
65 -66 0
-25 -24 -67 0
67 -71 0
-24 68 0
-25 68 0
24 25 -68 0
-68 -26 -69 0
69 -71 0
26 68 -70 0
70 -71 0
-28 -27 -72 0
72 -76 0
-27 73 0
-28 73 0
27 28 -73 0
-73 -29 -74 0
74 -76 0
29 73 -75 0
75 -76 0
-33 -32 -77 0
77 -81 0
-32 78 0
-33 78 0
32 33 -78 0
-78 -34 -79 0
79 -81 0
34 78 -80 0
80 -81 0
-37 -36 -82 0
82 -88 0
-36 83 0
-37 83 0
36 37 -83 0
-83 -38 -84 0
84 -88 0
-38 85 0
-83 85 0
38 83 -85 0
-85 -39 -86 0
86 -88 0
39 85 -87 0
87 -88 0
-21 -23 94 0
-94 -95 0
30 -91 0
31 -91 0
91 -93 0
3 -92 0
1 2 -41 0
41 -92 0
92 -93 0
93 -95 0
95 -98 0
22 -97 0
21 23 -96 0
96 -97 0
97 -98 0
-32 35 -125 0
125 -128 0
-33 35 -126 0
126 -128 0
-34 35 -127 0
127 -128 0
-11 35 -129 0
129 -131 0
-12 35 -130 0
130 -131 0
19 -132 0
35 -132 0
-19 -35 132 0
-132 90 -138 0
138 -140 0
20 -133 0
35 -133 0
-20 -35 133 0
-133 106 -139 0
139 -140 0
140 -144 0
-90 132 -141 0
141 -143 0
-106 133 -142 0
142 -143 0
143 -144 0
-8 -145 0
-7 -145 0
22 145 -165 0
165 -179 0
-2 -166 0
1 -166 0
2 -1 166 0
-4 -2 -169 0
169 -171 0
-5 2 -170 0
170 -171 0
171 -175 0
2 4 -172 0
172 -174 0
-2 5 -173 0
173 -174 0
174 -175 0
166 175 -176 0
176 -179 0
179 -187 0
-23 -182 0
21 -182 0
-2 182 -183 0
183 -186 0
30 22 184 0
-184 5 -185 0
185 -186 0
186 -187 0
187 -190 0
-5 -188 0
4 -188 0
-166 188 -189 0
189 -190 0
-90 190 -191 0
191 -216 0
-21 -193 0
23 -193 0
193 31 211 0
-211 -212 0
7 -194 0
21 -194 0
14 -152 0
17 -152 0
17 -154 0
18 -154 0
152 154 -159 0
17 159 -164 0
164 -199 0
8 -195 0
21 -195 0
195 -199 0
194 199 -201 0
-9 201 -203 0
203 -205 0
14 -147 0
15 -147 0
15 -150 0
18 -150 0
147 150 -157 0
15 157 -162 0
162 -197 0
194 -197 0
195 197 -202 0
-10 202 -204 0
204 -205 0
193 205 -206 0
206 -208 0
3 6 -207 0
207 -208 0
208 -212 0
212 -214 0
-3 6 -213 0
213 -214 0
-106 214 -215 0
215 -216 0
216 -234 0
32 -217 0
35 -217 0
-32 -35 217 0
-90 -106 -220 0
90 106 -220 0
-106 106 -220 0
-90 106 220 0
90 -106 220 0
106 -106 220 0
-220 -221 0
-106 -221 0
220 106 221 0
-217 221 -225 0
225 -228 0
33 -218 0
35 -218 0
-33 -35 218 0
-106 -222 0
220 -222 0
106 -220 222 0
-218 222 -226 0
226 -228 0
34 -219 0
35 -219 0
-34 -35 219 0
-220 -223 0
106 -223 0
220 -106 223 0
-219 223 -227 0
227 -228 0
228 -233 0
-106 -220 224 0
-224 -232 0
-221 217 -229 0
229 -232 0
-222 218 -230 0
230 -232 0
-223 219 -231 0
231 -232 0
232 -233 0
233 -234 0
234 -240 0
22 -237 0
30 -237 0
-90 237 -238 0
238 -240 0
-18 -241 0
-17 -241 0
241 -246 0
15 -245 0
-14 -244 0
-13 -244 0
244 -245 0
245 -246 0
-124 0
-118 0
-89 0
35 0
40 0
45 0
52 0
55 0
66 0
71 0
76 0
81 0
88 0
98 0
128 0
131 0
144 0
240 0
246 0
