jpf-symbc-bounded/src/examples/symbolicheap/bounded/bounddb/BinHeap-02.txt
#BinHeap_0
@sibling
@child
@parent
BinHeap/BinHeap_0/sibling/null
BinHeap/BinHeap_1/sibling/null
BinHeap/BinHeap_0/child/BinHeap_1
BinHeap/BinHeap_0/child/null
BinHeap/BinHeap_1/child/null
BinHeap/BinHeap_0/parent/null
BinHeap/BinHeap_1/parent/null
BinHeap/BinHeap_1/parent/BinHeap_0
